experiment/data/hgs-res/Vrp-Set-X-n129/Vrp-Set-X-n129-hgs/0.hgs1.vrp
NAME : 0
COMMENT : CVRP Instance
TYPE : CVRP
DIMENSION : 129
EDGE_WEIGHT_TYPE : EUC_2D
CAPACITY : 39
NODE_COORD_SECTION
1	0.0	0.0
2	51.0	570.0
3	691.0	985.0
4	66.0	119.0
5	502.0	415.0
6	434.0	289.0
7	427.0	584.0
8	342.0	576.0
9	790.0	87.0
10	312.0	475.0
11	908.0	531.0
12	840.0	566.0
13	863.0	232.0
14	284.0	833.0
15	515.0	175.0
16	9.0	243.0
17	768.0	209.0
18	777.0	582.0
19	84.0	508.0
20	380.0	523.0
21	255.0	267.0
22	544.0	961.0
23	408.0	661.0
24	57.0	588.0
25	278.0	44.0
26	168.0	722.0
27	726.0	406.0
28	223.0	385.0
29	495.0	70.0
30	560.0	632.0
31	235.0	655.0
32	643.0	127.0
33	765.0	267.0
34	459.0	976.0
35	585.0	962.0
36	154.0	796.0
37	650.0	444.0
38	931.0	52.0
39	377.0	19.0
40	178.0	633.0
41	917.0	803.0
42	871.0	677.0
43	667.0	164.0
44	208.0	651.0
45	35.0	437.0
46	503.0	680.0
47	462.0	870.0
48	322.0	123.0
49	677.0	829.0
50	878.0	407.0
51	223.0	251.0
52	671.0	94.0
53	218.0	351.0
54	375.0	220.0
55	367.0	567.0
56	986.0	869.0
57	236.0	769.0
58	202.0	998.0
59	761.0	712.0
60	75.0	520.0
61	14.0	737.0
62	895.0	632.0
63	224.0	725.0
64	328.0	387.0
65	36.0	300.0
66	817.0	531.0
67	31.0	283.0
68	209.0	574.0
69	490.0	395.0
70	659.0	121.0
71	410.0	207.0
72	761.0	450.0
73	768.0	348.0
74	873.0	349.0
75	439.0	179.0
76	51.0	269.0
77	886.0	558.0
78	151.0	752.0
79	208.0	186.0
80	897.0	547.0
81	469.0	396.0
82	607.0	437.0
83	202.0	433.0
84	642.0	100.0
85	180.0	703.0
86	873.0	595.0
87	103.0	184.0
88	466.0	416.0
89	124.0	311.0
90	71.0	321.0
91	8.0	357.0
92	51.0	200.0
93	899.0	471.0
94	67.0	236.0
95	482.0	432.0
96	991.0	388.0
97	933.0	309.0
98	649.0	131.0
99	497.0	404.0
100	626.0	195.0
101	807.0	375.0
102	776.0	626.0
103	624.0	275.0
104	55.0	288.0
105	877.0	515.0
106	821.0	533.0
107	456.0	317.0
108	625.0	410.0
109	783.0	403.0
110	662.0	97.0
111	733.0	533.0
112	499.0	470.0
113	766.0	340.0
114	206.0	385.0
115	822.0	285.0
116	571.0	304.0
117	934.0	461.0
118	533.0	242.0
119	442.0	24.0
120	303.0	249.0
121	675.0	92.0
122	467.0	432.0
123	575.0	338.0
124	385.0	239.0
125	272.0	512.0
126	567.0	124.0
127	738.0	447.0
128	379.0	165.0
129	610.0	408.0
DEMAND_SECTION
1	0
2	9
3	8
4	8
5	4
6	4
7	3
8	6
9	10
10	8
11	8
12	3
13	2
14	8
15	4
16	9
17	4
18	6
19	5
20	1
21	2
22	2
23	4
24	2
25	3
26	6
27	7
28	8
29	9
30	8
31	7
32	9
33	5
34	4
35	8
36	2
37	8
38	8
39	9
40	10
41	9
42	5
43	1
44	3
45	10
46	10
47	2
48	10
49	4
50	6
51	7
52	3
53	7
54	3
55	3
56	6
57	5
58	4
59	1
60	6
61	10
62	3
63	5
64	3
65	1
66	9
67	2
68	8
69	9
70	2
71	4
72	7
73	10
74	7
75	1
76	7
77	1
78	5
79	4
80	1
81	5
82	10
83	10
84	2
85	4
86	2
87	2
88	2
89	6
90	7
91	6
92	8
93	3
94	1
95	2
96	1
97	9
98	1
99	6
100	5
101	6
102	1
103	1
104	3
105	7
106	2
107	4
108	4
109	4
110	6
111	2
112	9
113	9
114	5
115	1
116	9
117	1
118	10
119	4
120	4
121	10
122	1
123	6
124	2
125	9
126	7
127	1
128	7
129	3
DEPOT_SECTION
1
-1
EOF
