experiment/data/hgs-res/Vrp-Set-X-n129/Vrp-Set-X-n129-hgs/0.hgs1.tour
Route #1: 83 109 51 120 69 31 125
Route #2: 47 127 28 118 38
Route #3: 74 14 99 42 16 12 37 8 97 24
Route #4: 100 49 92 116 95 96 73 114 32
Route #5: 102 112 72 26 36 107
Route #6: 123 5 106 122 115 117 70
Route #7: 71 65 105 76 79 10 104 108
Route #8: 110 17 101 58 40 55 41 61 85 11 126
Route #9: 53 80 68 98 4 111 94 121
Route #10: 87 128 81 29 45 6 54
Route #11: 82 124 9 63 119 78
Route #12: 86 88 113 27 52 20 50
Route #13: 7 22 46 33 21 34 2 48 19
Route #14: 3
Route #15: 93 39 25 84 43 30 67
Route #16: 62 56 13 57 35 77 60
Route #17: 15 66 89 103 75 91
Route #18: 64 18 59 23 1 44 90
Cost 28946.5
